100 8
270 274
576 796
190 122
420 889
125 340
664 755
713 611
129 563
568 778
155 736
548 395
426 194
230 752
737 104
258 595
624 311
475 179
582 765
560 677
323 228
216 383
113 648
633 702
718 453
647 464
615 346
635 193
688 144
528 447
515 24
161 370
677 654
551 458
481 776
231 692
798 217
662 654
642 201
598 822
260 250
565 429
730 853
545 530
317 199
597 791
216 285
141 308
622 613
564 125
471 378
773 199
218 706
733 287
499 816
648 698
793 671
772 655
870 14
795 173
555 437
176 436
577 786
593 843
685 196
313 154
568 625
110 587
669 579
342 290
264 282
471 606
833 107
475 500
655 766
628 611
516 541
96 453
670 569
317 288
605 876
613 292
359 145
758 108
216 426
739 730
604 599
301 131
594 296
757 736
884 31
93 311
801 651
823 106
553 778
200 319
549 794
558 641
557 100
667 659
595 700
